<instance format="XCSP3" type="COP">
  <variables>
    <array id="x" size="[60]"> 0 1 </array>
  </variables>
  <constraints>
    <sum>
      <list> x[] </list>
      <coeffs> 3 3 52 12 14 8 2 6 8 47 18 48 28 9 54 35 9 54 62 23 36 7 7 18 61 21 14 23 47 46 6 18 26 48 23 31 28 42 1 58 23 8 32 51 43 46 45 53 29 41 10 24 17 43 16 51 47 50 28 44 </coeffs>
      <condition> (le,250) </condition>
    </sum>
  </constraints>
  <objectives>
    <maximize type="sum">
      <list> x[] </list>
      <coeffs> 88 89 6 59 9 18 52 19 59 19 39 73 58 52 27 81 98 63 36 21 68 74 18 70 6 53 90 44 2 42 24 81 69 15 17 24 58 23 6 72 37 66 20 54 68 68 32 98 89 64 31 26 99 22 98 58 87 42 91 52 </coeffs>
    </maximize>
  </objectives>
</instance>
